c User generated cnf file
p cnf 15 48
-9 14 14 0 
5 -6 2 0 
15 -4 4 0 
15 -12 6 0 
9 2 -9 0 
7 9 -4 0 
9 12 -9 0 
-4 7 8 0 
2 -5 5 0 
9 -8 13 0 
-6 1 4 0 
6 -8 10 0 
13 1 -15 0 
-2 8 9 0 
12 4 -12 0 
15 5 -1 0 
8 11 -6 0 
-2 11 14 0 
1 -5 11 0 
15 5 -4 0 
15 11 -6 0 
-10 10 10 0 
9 8 -6 0 
6 10 -5 0 
10 9 -12 0 
8 12 -2 0 
7 -8 3 0 
13 -15 5 0 
12 -12 10 0 
9 15 -14 0 
6 9 -15 0 
11 -5 12 0 
6 6 -12 0 
-3 13 7 0 
-5 13 14 0 
13 4 -13 0 
-5 8 10 0 
-7 3 1 0 
-4 10 11 0 
2 -1 6 0 
-7 15 14 0 
-4 6 12 0 
-7 5 14 0 
10 2 -8 0 
-14 8 11 0 
-4 5 13 0 
-11 13 3 0 
12 -6 1 0 
